NAME : sample_10
COMMENT : Sample TSP instance with 10 cities
TYPE : TSP
DIMENSION : 10
EDGE_WEIGHT_TYPE : EUC_2D
NODE_COORD_SECTION
1 566 157
2 774 157
3 156 659
4 667 358
5 472 617
6 343 477
7 746 349
8 860 989
9 138 942
10 677 498
EOF
